c File: data_files/evolved_graphs/g0249.col
c
c Auto generated graph
c
p edge 100 233
e 1 4
e 1 21
e 1 50
e 1 66
e 1 98
e 2 21
e 2 32
e 2 98
e 2 99
e 3 13
e 3 25
e 3 71
e 3 90
e 3 98
e 3 100
e 4 26
e 4 48
e 5 58
e 5 72
e 5 87
e 5 100
e 6 56
e 6 64
e 6 85
e 7 27
e 7 32
e 7 39
e 7 48
e 7 74
e 7 82
e 8 32
e 8 41
e 8 51
e 8 71
e 8 87
e 9 19
e 9 20
e 9 28
e 9 63
e 10 49
e 10 50
e 10 71
e 10 74
e 10 75
e 11 25
e 11 27
e 11 45
e 11 89
e 12 19
e 12 21
e 12 32
e 12 72
e 13 24
e 13 66
e 13 77
e 13 82
e 13 96
e 14 27
e 14 85
e 14 99
e 15 20
e 15 37
e 16 18
e 16 39
e 16 40
e 16 62
e 16 87
e 16 94
e 17 76
e 17 84
e 17 95
e 18 25
e 18 30
e 18 42
e 18 54
e 18 68
e 18 96
e 19 26
e 19 57
e 19 68
e 20 24
e 20 55
e 20 83
e 20 91
e 21 99
e 22 29
e 22 73
e 22 98
e 23 28
e 24 41
e 24 64
e 24 70
e 24 95
e 25 35
e 25 76
e 25 99
e 26 55
e 26 56
e 26 72
e 27 36
e 27 39
e 28 37
e 28 90
e 28 93
e 29 33
e 29 46
e 29 47
e 29 57
e 29 70
e 29 76
e 29 94
e 29 96
e 30 72
e 30 75
e 30 97
e 31 49
e 31 56
e 31 59
e 31 62
e 31 79
e 33 59
e 34 91
e 34 95
e 35 47
e 35 50
e 35 52
e 35 76
e 35 84
e 35 86
e 36 55
e 36 63
e 36 71
e 36 79
e 36 89
e 37 52
e 37 54
e 37 97
e 37 100
e 38 44
e 38 70
e 38 90
e 39 57
e 39 86
e 40 65
e 40 97
e 41 57
e 41 58
e 41 65
e 41 69
e 41 88
e 41 100
e 42 52
e 42 88
e 43 45
e 43 76
e 43 83
e 43 92
e 43 93
e 44 57
e 44 71
e 44 81
e 45 58
e 45 59
e 45 61
e 45 69
e 45 91
e 46 54
e 46 70
e 46 82
e 46 89
e 46 93
e 47 61
e 47 80
e 47 89
e 48 75
e 48 78
e 49 72
e 49 80
e 49 95
e 50 67
e 50 100
e 51 89
e 52 62
e 52 79
e 52 99
e 53 90
e 54 99
e 55 70
e 55 91
e 56 62
e 56 81
e 57 61
e 58 99
e 59 96
e 60 65
e 60 66
e 61 92
e 64 73
e 64 81
e 64 95
e 65 81
e 65 83
e 66 69
e 66 70
e 66 86
e 66 87
e 66 99
e 67 76
e 67 84
e 68 75
e 68 79
e 68 88
e 68 96
e 68 97
e 71 80
e 71 89
e 72 88
e 73 82
e 74 93
e 75 97
e 76 88
e 77 82
e 80 82
e 82 95
e 84 93
e 84 97
e 85 94
e 85 99
e 89 91
e 89 100
e 90 91
e 93 97
e 93 98
